column=9;
row=9;
left=[0, 0, 0, 0, 3, 0, 0, 0, 1];
right=[0, 0, 4, 0, 3, 0, 0, 0, 5];
top=[4, 0, 1, 0, 0, 4, 2, 0, 3];
bottom=[0, 3, 0, 5, 0, 2, 0, 2, 2];
Board=[|4,7,0,0,0,0,0,0,0|3,6,0,0,0,0,0,0,0|0,0,8,6,9,0,0,0,0|0,9,0,1,0,0,5,2,0|0,1,0,0,0,6,8,0,0|8,2,3,7,0,0,0,1,0|0,4,6,0,0,0,3,8,0|0,0,0,3,0,1,0,0,0|0,0,0,2,0,8,7,0,5|]